(set-logic QF_S)
(declare-fun var0 () String)
(declare-fun var1 () String)
(declare-fun var2 () String)
(declare-fun var3 () String)
(declare-fun var4 () Int)
(declare-fun var5 () Int)
(declare-fun var6 () Int)
(declare-fun var7 () Int)
(assert (>= (str.indexof var0 var1 152) (str.to.int var2)))
(assert (str.in.re (str.at (str.substr var3 var4 var5) (str.indexof "gk2" var3 var6)) (re.+ (re.* re.allchar))))
(assert (str.contains (str.at var1 var7) (str.at var1 var6)))
(assert (str.contains (str.substr var3 var4 var4) (str.substr (str.replace var2 var3 "{^%VpB`}") (str.len var2) (str.len var0))))
(check-sat)